c Generated map
c Size: 10 * 10, weights in range: 1 to 10, walls: True, with ratio 0.1
c dim 1 of 6
c
p sp 100 146
c graph contains 100 nodes and 146 arcs
c
a 1 11 1
a 11 1 1
a 1 2 1
a 2 1 1
a 2 12 3
a 12 2 3
a 2 3 5
a 3 2 5
a 3 13 1
a 13 3 1
a 3 4 7
a 4 3 7
a 4 14 5
a 14 4 5
a 4 5 2
a 5 4 2
a 5 15 6
a 15 5 6
a 5 6 5
a 6 5 5
a 6 16 7
a 16 6 7
a 6 7 7
a 7 6 7
a 7 17 8
a 17 7 8
a 7 8 1
a 8 7 1
a 8 18 8
a 18 8 8
a 8 9 5
a 9 8 5
a 9 19 6
a 19 9 6
a 9 10 9
a 10 9 9
a 10 20 6
a 20 10 6
a 11 12 4
a 12 11 4
a 12 22 5
a 22 12 5
a 12 13 10
a 13 12 10
a 13 23 7
a 23 13 7
a 13 14 6
a 14 13 6
a 14 24 3
a 24 14 3
a 14 15 5
a 15 14 5
a 15 25 3
a 25 15 3
a 15 16 5
a 16 15 5
a 16 26 3
a 26 16 3
a 16 17 1
a 17 16 1
a 17 27 5
a 27 17 5
a 17 18 5
a 18 17 5
a 18 28 5
a 28 18 5
a 18 19 7
a 19 18 7
a 19 29 7
a 29 19 7
a 19 20 3
a 20 19 3
a 22 32 7
a 32 22 7
a 22 23 6
a 23 22 6
a 23 24 4
a 24 23 4
a 24 34 1
a 34 24 1
a 24 25 2
a 25 24 2
a 25 35 4
a 35 25 4
a 25 26 5
a 26 25 5
a 26 36 4
a 36 26 4
a 26 27 6
a 27 26 6
a 27 37 3
a 37 27 3
a 27 28 4
a 28 27 4
a 28 38 2
a 38 28 2
a 28 29 1
a 29 28 1
a 29 39 3
a 39 29 3
a 31 41 3
a 41 31 3
a 31 32 3
a 32 31 3
a 34 44 7
a 44 34 7
a 34 35 9
a 35 34 9
a 35 45 2
a 45 35 2
a 35 36 6
a 36 35 6
a 36 46 7
a 46 36 7
a 36 37 7
a 37 36 7
a 37 47 5
a 47 37 5
a 37 38 8
a 38 37 8
a 38 48 1
a 48 38 1
a 38 39 8
a 39 38 8
a 39 49 5
a 49 39 5
a 39 40 4
a 40 39 4
a 40 50 2
a 50 40 2
a 41 51 10
a 51 41 10
a 43 53 9
a 53 43 9
a 43 44 5
a 44 43 5
a 44 54 8
a 54 44 8
a 44 45 10
a 45 44 10
a 45 55 2
a 55 45 2
a 45 46 7
a 46 45 7
a 46 56 8
a 56 46 8
a 46 47 1
a 47 46 1
a 47 57 3
a 57 47 3
a 47 48 5
a 48 47 5
a 48 58 2
a 58 48 2
a 48 49 1
a 49 48 1
a 49 59 5
a 59 49 5
a 49 50 9
a 50 49 9
a 50 60 4
a 60 50 4
a 51 61 6
a 61 51 6
a 51 52 1
a 52 51 1
a 52 62 1
a 62 52 1
a 52 53 1
a 53 52 1
a 53 63 1
a 63 53 1
a 53 54 10
a 54 53 10
a 54 64 10
a 64 54 10
a 54 55 2
a 55 54 2
a 55 65 6
a 65 55 6
a 55 56 3
a 56 55 3
a 56 66 1
a 66 56 1
a 56 57 9
a 57 56 9
a 57 67 9
a 67 57 9
a 57 58 10
a 58 57 10
a 58 68 5
a 68 58 5
a 58 59 1
a 59 58 1
a 59 69 8
a 69 59 8
a 59 60 3
a 60 59 3
a 60 70 10
a 70 60 10
a 61 71 4
a 71 61 4
a 61 62 2
a 62 61 2
a 62 72 10
a 72 62 10
a 62 63 10
a 63 62 10
a 63 73 10
a 73 63 10
a 63 64 8
a 64 63 8
a 64 74 2
a 74 64 2
a 64 65 6
a 65 64 6
a 65 66 3
a 66 65 3
a 66 76 1
a 76 66 1
a 66 67 3
a 67 66 3
a 67 68 4
a 68 67 4
a 68 69 4
a 69 68 4
a 69 79 4
a 79 69 4
a 69 70 3
a 70 69 3
a 70 80 8
a 80 70 8
a 71 81 2
a 81 71 2
a 71 72 4
a 72 71 4
a 72 73 8
a 73 72 8
a 73 74 9
a 74 73 9
a 74 84 2
a 84 74 2
a 76 86 2
a 86 76 2
a 79 89 7
a 89 79 7
a 79 80 7
a 80 79 7
a 80 90 5
a 90 80 5
a 81 91 7
a 91 81 7
a 84 94 6
a 94 84 6
a 84 85 9
a 85 84 9
a 85 95 9
a 95 85 9
a 85 86 6
a 86 85 6
a 86 96 10
a 96 86 10
a 86 87 10
a 87 86 10
a 87 97 3
a 97 87 3
a 87 88 7
a 88 87 7
a 88 98 1
a 98 88 1
a 88 89 1
a 89 88 1
a 89 99 2
a 99 89 2
a 89 90 1
a 90 89 1
a 90 100 7
a 100 90 7
a 91 92 8
a 92 91 8
a 94 95 8
a 95 94 8
a 95 96 4
a 96 95 4
a 96 97 6
a 97 96 6
a 97 98 2
a 98 97 2
a 98 99 5
a 99 98 5
a 99 100 3
a 100 99 3
